[66208, 67456, 66954, 64189, 65135, 66249, 65821, 64788, 65873, 64831, 131912, 131513, 132335, 134377, 133712, 129102, 129936, 130869, 131131, 132576, 261109, 261985, 261511, 263660, 261440, 266547, 260128, 265715, 263954, 264184, 528102, 530316, 527663, 526638, 534052, 529703, 529826, 526177, 527328, 527123, 1054540, 1052832, 1056402, 1049825, 1051698, 1050964, 1057558, 1058062, 1056870, 1051994]
